p tw 1123 1312
1 69
1 1028
2 70
2 1029
3 71
3 1030
4 72
4 1031
5 49
5 1032
6 50
6 1033
7 73
7 1034
8 55
8 1035
9 56
9 1036
10 74
10 1037
11 75
11 1038
12 76
12 1039
13 65
13 1040
14 66
14 1041
15 77
15 1042
16 78
16 1043
17 57
17 1044
18 58
18 1045
19 79
19 1046
20 80
20 1047
21 81
21 1048
22 82
22 1049
23 51
23 1050
24 52
24 1051
25 83
25 1052
26 84
26 1053
27 59
27 1054
28 60
28 1055
29 53
29 1056
30 54
30 1057
31 85
31 1058
32 86
32 1059
33 63
33 1060
34 64
34 1061
35 87
35 1062
36 88
36 1063
37 89
37 1064
38 61
38 1065
39 62
39 1066
40 90
40 1067
41 91
41 1068
42 92
42 1069
43 93
43 1070
44 94
44 1071
45 67
45 1072
46 68
46 1073
47 95
47 1074
48 96
48 1075
49 50
49 97
50 117
51 52
51 121
52 100
53 54
53 123
54 124
55 56
55 110
56 118
57 58
57 120
58 101
59 60
59 122
60 106
61 62
61 116
62 126
63 64
63 111
64 125
65 66
65 119
66 113
67 68
67 127
68 128
69 137
70 138
71 109
72 220
73 179
74 98
75 167
76 284
77 142
78 99
79 134
80 105
81 183
82 114
83 130
84 102
85 115
86 224
87 103
88 216
89 250
90 112
91 173
92 104
93 213
94 107
95 108
96 144
97 98
97 148
98 136
99 100
99 152
100 129
101 102
101 133
102 157
103 104
103 140
104 163
105 106
105 154
106 159
107 108
107 164
108 143
109 110
109 147
110 150
111 112
111 161
112 146
113 114
113 141
114 155
115 116
115 132
116 162
117 149
118 135
119 151
120 153
121 156
122 158
123 160
124 131
125 139
126 145
127 165
128 166
129 130
129 195
130 171
131 132
131 198
132 170
133 134
133 168
134 192
135 136
135 177
136 190
137 138
137 187
138 181
139 140
139 199
140 176
141 142
141 180
142 191
143 144
143 203
144 204
145 146
145 185
146 201
147 188
148 182
149 243
150 189
151 259
152 178
153 251
154 193
155 194
156 169
157 196
158 175
159 197
160 184
161 172
162 200
163 202
164 186
165 261
166 174
167 168
167 206
168 231
169 170
169 232
170 223
171 172
171 209
172 237
173 174
173 218
174 240
175 176
175 234
176 215
177 178
177 229
178 208
179 180
179 228
180 230
181 182
181 226
182 227
183 184
183 221
184 235
185 186
185 239
186 214
187 225
188 219
189 296
190 205
191 207
192 211
193 212
194 222
195 233
196 210
197 330
198 236
199 238
200 302
201 217
202 292
203 241
204 242
205 206
205 267
206 244
207 208
207 245
208 269
209 210
209 252
210 273
211 212
211 253
212 271
213 214
213 280
214 281
215 216
215 277
216 278
217 218
217 279
218 256
219 220
219 264
220 247
221 222
221 260
222 272
223 224
223 275
224 257
225 336
226 263
227 265
228 266
229 248
230 268
231 270
232 246
233 324
234 254
235 274
236 249
237 276
238 255
239 258
240 282
241 410
242 262
243 244
243 304
244 283
245 246
245 308
246 300
247 248
247 285
248 305
249 250
249 313
250 301
251 252
251 288
252 312
253 254
253 309
254 290
255 256
255 315
256 291
257 258
257 297
258 318
259 260
259 307
260 311
261 262
261 294
262 321
263 448
264 303
265 286
266 295
267 306
268 377
269 287
270 369
271 310
272 299
273 289
274 364
275 314
276 298
277 316
278 317
279 319
280 320
281 293
282 379
283 284
283 346
284 338
285 286
285 337
286 342
287 288
287 348
288 323
289 290
289 326
290 352
291 292
291 356
292 357
293 294
293 358
294 333
295 296
295 344
296 328
297 298
297 325
298 353
299 300
299 340
300 350
301 302
301 354
302 334
303 411
304 343
305 345
306 322
307 347
308 329
309 339
310 407
311 349
312 351
313 341
314 417
315 327
316 405
317 331
318 355
319 332
320 335
321 359
322 323
322 383
323 368
324 325
324 363
325 391
326 327
326 390
327 375
328 329
328 366
329 386
330 331
330 371
331 392
332 333
332 394
333 378
334 335
334 372
335 397
336 337
336 380
337 381
338 339
338 385
339 388
340 341
340 389
341 365
342 360
343 361
344 382
345 367
346 384
347 376
348 387
349 493
350 362
351 440
352 370
353 374
354 393
355 373
356 395
357 396
358 398
359 454
360 361
360 399
361 421
362 363
362 428
363 402
364 365
364 430
365 431
366 367
366 412
367 422
368 369
368 426
369 403
370 371
370 429
371 408
372 373
372 418
373 435
374 375
374 413
375 433
376 377
376 424
377 415
378 379
378 437
379 438
380 419
381 420
382 489
383 400
384 477
385 423
386 425
387 401
388 427
389 416
390 404
391 432
392 434
393 560
394 414
395 483
396 406
397 436
398 409
399 400
399 458
400 446
401 402
401 462
402 439
403 404
403 443
404 467
405 406
405 450
406 473
407 408
407 464
408 469
409 410
409 474
410 453
411 412
411 457
412 460
413 414
413 471
414 456
415 416
415 451
416 465
417 418
417 442
418 472
419 447
420 530
421 459
422 445
423 594
424 461
425 452
426 463
427 444
428 466
429 468
430 470
431 441
432 534
433 449
434 526
435 455
436 523
437 475
438 476
439 440
439 505
440 481
441 442
441 508
442 480
443 444
443 478
444 502
445 446
445 487
446 500
447 448
447 497
448 491
449 450
449 509
450 486
451 452
451 490
452 501
453 454
453 513
454 514
455 456
455 495
456 511
457 498
458 492
459 553
460 499
461 569
462 488
463 561
464 503
465 504
466 479
467 506
468 485
469 507
470 494
471 482
472 510
473 512
474 496
475 571
476 484
477 478
477 516
478 541
479 480
479 542
480 533
481 482
481 519
482 547
483 484
483 528
484 550
485 486
485 544
486 525
487 488
487 539
488 518
489 490
489 538
490 540
491 492
491 536
492 537
493 494
493 531
494 545
495 496
495 549
496 524
497 535
498 529
499 606
500 515
501 517
502 521
503 522
504 532
505 543
506 520
507 640
508 546
509 548
510 612
511 527
512 602
513 551
514 552
515 516
515 577
516 554
517 518
517 555
518 579
519 520
519 562
520 583
521 522
521 563
522 581
523 524
523 590
524 591
525 526
525 587
526 588
527 528
527 589
528 566
529 530
529 574
530 557
531 532
531 570
532 582
533 534
533 585
534 567
535 646
536 573
537 575
538 576
539 558
540 578
541 580
542 556
543 634
544 564
545 584
546 559
547 586
548 565
549 568
550 592
551 720
552 572
553 554
553 614
554 593
555 556
555 618
556 610
557 558
557 595
558 615
559 560
559 623
560 611
561 562
561 598
562 622
563 564
563 619
564 600
565 566
565 625
566 601
567 568
567 607
568 628
569 570
569 617
570 621
571 572
571 604
572 631
573 758
574 613
575 596
576 605
577 616
578 687
579 597
580 679
581 620
582 609
583 599
584 674
585 624
586 608
587 626
588 627
589 629
590 630
591 603
592 689
593 594
593 656
594 648
595 596
595 647
596 652
597 598
597 658
598 633
599 600
599 636
600 662
601 602
601 666
602 667
603 604
603 668
604 643
605 606
605 654
606 638
607 608
607 635
608 663
609 610
609 650
610 660
611 612
611 664
612 644
613 721
614 653
615 655
616 632
617 657
618 639
619 649
620 717
621 659
622 661
623 651
624 727
625 637
626 715
627 641
628 665
629 642
630 645
631 669
632 633
632 693
633 678
634 635
634 673
635 701
636 637
636 700
637 685
638 639
638 676
639 696
640 641
640 681
641 702
642 643
642 704
643 688
644 645
644 682
645 707
646 647
646 690
647 691
648 649
648 695
649 698
650 651
650 699
651 675
652 670
653 671
654 692
655 677
656 694
657 686
658 697
659 803
660 672
661 750
662 680
663 684
664 703
665 683
666 705
667 706
668 708
669 764
670 671
670 709
671 731
672 673
672 738
673 712
674 675
674 740
675 741
676 677
676 722
677 732
678 679
678 736
679 713
680 681
680 739
681 718
682 683
682 728
683 745
684 685
684 723
685 743
686 687
686 734
687 725
688 689
688 747
689 748
690 729
691 730
692 799
693 710
694 787
695 733
696 735
697 711
698 737
699 726
700 714
701 742
702 744
703 870
704 724
705 793
706 716
707 746
708 719
709 710
709 768
710 756
711 712
711 772
712 749
713 714
713 753
714 777
715 716
715 760
716 783
717 718
717 774
718 779
719 720
719 784
720 763
721 722
721 767
722 770
723 724
723 781
724 766
725 726
725 761
726 775
727 728
727 752
728 782
729 757
730 840
731 769
732 755
733 904
734 771
735 762
736 773
737 754
738 776
739 778
740 780
741 751
742 844
743 759
744 836
745 765
746 833
747 785
748 786
749 750
749 815
750 791
751 752
751 818
752 790
753 754
753 788
754 812
755 756
755 797
756 810
757 758
757 807
758 801
759 760
759 819
760 796
761 762
761 800
762 811
763 764
763 823
764 824
765 766
765 805
766 821
767 808
768 802
769 863
770 809
771 879
772 798
773 871
774 813
775 814
776 789
777 816
778 795
779 817
780 804
781 792
782 820
783 822
784 806
785 881
786 794
787 788
787 826
788 851
789 790
789 852
790 843
791 792
791 829
792 857
793 794
793 838
794 860
795 796
795 854
796 835
797 798
797 849
798 828
799 800
799 848
800 850
801 802
801 846
802 847
803 804
803 841
804 855
805 806
805 859
806 834
807 845
808 839
809 916
810 825
811 827
812 831
813 832
814 842
815 853
816 830
817 950
818 856
819 858
820 922
821 837
822 912
823 861
824 862
825 826
825 887
826 864
827 828
827 865
828 889
829 830
829 872
830 893
831 832
831 873
832 891
833 834
833 900
834 901
835 836
835 897
836 898
837 838
837 899
838 876
839 840
839 884
840 867
841 842
841 880
842 892
843 844
843 895
844 877
845 956
846 883
847 885
848 886
849 868
850 888
851 890
852 866
853 944
854 874
855 894
856 869
857 896
858 875
859 878
860 902
861 1026
862 882
863 864
863 924
864 903
865 866
865 928
866 920
867 868
867 905
868 925
869 870
869 933
870 921
871 872
871 908
872 932
873 874
873 929
874 910
875 876
875 935
876 911
877 878
877 917
878 938
879 880
879 927
880 931
881 882
881 914
882 941
883 981
884 923
885 906
886 915
887 926
888 993
889 907
890 997
891 930
892 919
893 909
894 1008
895 934
896 918
897 936
898 937
899 939
900 940
901 913
902 1025
903 904
903 966
904 958
905 906
905 957
906 962
907 908
907 968
908 943
909 910
909 946
910 972
911 912
911 976
912 977
913 914
913 978
914 953
915 916
915 964
916 948
917 918
917 945
918 973
919 920
919 960
920 970
921 922
921 974
922 954
923 982
924 963
925 965
926 942
927 967
928 949
929 959
930 999
931 969
932 971
933 961
934 1010
935 947
936 1014
937 951
938 975
939 952
940 955
941 979
942 943
942 989
943 996
944 945
944 1003
945 1011
946 947
946 1005
947 1013
948 949
948 987
949 994
950 951
950 1007
951 1015
952 953
952 1019
953 1024
954 955
954 1017
955 1022
956 957
956 980
957 983
958 959
958 991
959 998
960 961
960 1001
961 1009
962 984
963 985
964 986
965 988
966 990
967 992
968 995
969 1000
970 1002
971 1004
972 1006
973 1012
974 1016
975 1018
976 1020
977 1021
978 1023
979 1027
980 1076
981 1077
982 1078
983 1079
984 1080
985 1081
986 1082
987 1083
988 1084
989 1085
990 1086
991 1087
992 1088
993 1089
994 1090
995 1091
996 1092
997 1093
998 1094
999 1095
1000 1096
1001 1097
1002 1098
1003 1099
1004 1100
1005 1101
1006 1102
1007 1103
1008 1104
1009 1105
1010 1106
1011 1107
1012 1108
1013 1109
1014 1110
1015 1111
1016 1112
1017 1113
1018 1114
1019 1115
1020 1116
1021 1117
1022 1118
1023 1119
1024 1120
1025 1121
1026 1122
1027 1123
